p cnf 15 27
-1 0
-8 10 -5 5 0
8 -6 0
-8 10 -11 -1 0
4 -2 0
11 -6 -14 0
-8 0
-7 -14 7 0
-4 4 -2 15 0
13 5 6 0
-12 0
-5 -12 -10 0
8 0
12 -9 0
-15 10 -5 -3 0
-7 -1 0
10 -10 15 0
8 -13 0
-11 0
12 15 0
-8 -14 -5 12 0
-8 12 0
2 0
2 -12 0
-6 -14 -10 -13 0
-13 -10 0
2 -13 4 7 0
